knapPI_9_1000_1000_99
n 1000
c 170484
z 156237
time 2.0
1,601,1001,1
2,525,1000,1
3,582,1001,1
4,213,1000,1
5,44,1000,1
6,905,1000,1
7,732,1000,1
8,482,1000,1
9,855,1000,1
10,559,1000,1
11,381,1000,1
12,603,1001,1
13,304,1001,1
14,149,1000,1
15,224,1001,1
16,593,1000,1
17,34,1000,1
18,843,1001,1
19,292,1000,1
20,626,1000,1
21,746,1000,1
22,699,1000,1
23,757,1001,1
24,271,1000,1
25,488,1001,1
26,646,1000,1
27,620,1000,1
28,361,1000,1
29,917,1001,1
30,942,1001,1
31,618,1001,1
32,850,1000,1
33,248,1000,1
34,984,1001,1
35,842,1001,1
36,721,1001,1
37,34,1000,1
38,498,1000,1
39,969,1001,1
40,273,1000,1
41,54,1000,1
42,953,1000,1
43,813,1001,1
44,793,1000,1
45,267,1000,1
46,507,1000,1
47,848,1001,1
48,811,1001,1
49,13,1000,1
50,593,1000,1
51,43,1001,1
52,752,1000,1
53,125,1000,1
54,435,1001,1
55,499,1000,1
56,105,1001,1
57,598,1001,1
58,165,1001,1
59,617,1001,1
60,937,1000,1
61,554,1001,1
62,919,1000,1
63,470,1001,1
64,905,1000,1
65,819,1001,1
66,339,1001,1
67,347,1001,1
68,425,1001,1
69,611,1001,1
70,763,1001,1
71,994,1000,1
72,659,1000,1
73,111,1000,1
74,430,1000,1
75,205,1001,1
76,317,1001,1
77,371,1000,1
78,668,1000,1
79,135,1001,1
80,656,1001,1
81,942,1000,1
82,512,1001,1
83,443,1001,1
84,187,1001,1
85,53,1000,1
86,710,1001,1
87,706,1000,1
88,5,1000,1
89,4,1000,1
90,36,1001,1
91,745,1001,1
92,200,1000,1
93,550,1000,1
94,752,1001,1
95,28,1001,1
96,906,1000,1
97,762,1000,1
98,831,1001,1
99,248,1000,1
100,453,1001,1
101,363,1001,1
102,964,1001,1
103,869,1001,1
104,521,1000,1
105,414,1001,1
106,684,1001,1
107,343,1000,1
108,455,1000,1
109,37,1001,1
110,670,1000,1
111,206,1000,1
112,418,1000,1
113,446,1000,1
114,888,1001,1
115,202,1000,1
116,647,1001,1
117,27,1001,1
118,749,1001,1
119,184,1000,1
120,970,1001,1
121,321,1000,1
122,759,1001,1
123,648,1001,1
124,643,1001,1
125,47,1001,1
126,177,1001,1
127,395,1000,1
128,7,1001,1
129,577,1000,1
130,700,1000,1
131,680,1000,1
132,803,1000,1
133,294,1000,1
134,300,1000,1
135,920,1000,1
136,923,1000,1
137,59,1001,1
138,743,1000,1
139,943,1001,1
140,503,1000,1
141,744,1001,1
142,615,1000,1
143,795,1000,1
144,977,1001,1
145,767,1000,1
146,552,1000,1
147,560,1000,1
148,615,1001,1
149,486,1000,1
150,311,1000,1
151,567,1001,1
152,171,1001,1
153,878,1000,1
154,140,1001,1
155,818,1000,1
156,268,1001,1
157,81,1000,1
158,137,1000,1
159,901,1001,1
160,887,1001,1
161,385,1001,1
162,497,1001,1
163,556,1001,1
164,604,1001,1
165,933,1001,1
166,944,1000,1
167,522,1000,1
168,151,1000,1
169,321,1000,1
170,132,1000,1
171,502,1001,1
172,422,1001,1
173,733,1001,1
174,773,1000,1
175,94,1000,1
176,724,1000,1
177,557,1000,1
178,654,1001,1
179,257,1001,1
180,939,1000,1
181,209,1000,1
182,804,1001,1
183,204,1001,1
184,682,1000,1
185,917,1001,1
186,671,1001,1
187,665,1001,1
188,631,1001,1
189,795,1000,1
190,734,1000,1
191,329,1000,1
192,453,1000,1
193,593,1000,1
194,7,1000,1
195,84,1001,1
196,376,1001,1
197,998,1001,1
198,710,1000,1
199,286,1000,1
200,374,1001,1
201,125,1000,1
202,260,1001,1
203,307,1001,1
204,672,1001,1
205,520,1001,1
206,465,1001,1
207,345,1000,1
208,411,1001,1
209,688,1000,1
210,831,1001,1
211,19,1001,1
212,474,1000,1
213,86,1000,1
214,878,1001,1
215,948,1001,1
216,568,1000,1
217,88,1001,1
218,295,1001,1
219,309,1000,1
220,198,1001,1
221,373,1001,1
222,498,1000,1
223,436,1001,1
224,124,1000,1
225,881,1001,1
226,512,1000,1
227,49,1001,1
228,269,1001,1
229,957,1000,1
230,373,1000,1
231,204,1000,1
232,766,1000,1
233,965,1001,1
234,424,1001,1
235,601,1001,1
236,570,1000,1
237,984,1001,1
238,917,1001,1
239,207,1001,1
240,354,1000,1
241,880,1000,1
242,335,1000,1
243,132,1001,1
244,7,1000,1
245,278,1000,1
246,796,1001,1
247,195,1000,1
248,617,1000,1
249,450,1001,1
250,225,1000,1
251,714,1001,1
252,219,1000,1
253,688,1001,1
254,522,1000,1
255,959,1001,1
256,478,1001,1
257,803,1000,1
258,723,1001,1
259,276,1001,1
260,359,1000,1
261,523,1001,1
262,950,1001,1
263,382,1001,1
264,987,1000,1
265,535,1000,1
266,686,1001,1
267,799,1001,1
268,810,1000,1
269,946,1001,1
270,459,1000,1
271,96,1001,1
272,639,1000,1
273,832,1000,1
274,919,1000,1
275,257,1001,1
276,846,1001,1
277,502,1001,1
278,482,1001,1
279,833,1001,1
280,366,1001,1
281,941,1000,1
282,930,1000,1
283,702,1001,1
284,591,1001,1
285,561,1001,1
286,716,1001,1
287,474,1000,1
288,165,1001,1
289,593,1000,1
290,182,1000,1
291,222,1001,1
292,710,1001,1
293,403,1000,1
294,823,1000,1
295,719,1000,1
296,687,1000,1
297,821,1001,1
298,35,1001,1
299,58,1001,1
300,295,1000,1
301,44,1001,1
302,845,1000,1
303,673,1000,1
304,205,1001,1
305,75,1001,1
306,491,1001,1
307,542,1000,1
308,778,1000,1
309,684,1000,1
310,988,1001,1
311,51,1000,1
312,917,1000,1
313,212,1001,1
314,114,1001,1
315,219,1000,1
316,304,1001,1
317,970,1001,1
318,236,1000,1
319,733,1001,1
320,577,1001,1
321,460,1001,1
322,710,1001,1
323,338,1001,1
324,131,1001,1
325,902,1000,1
326,158,1001,1
327,865,1000,1
328,809,1000,1
329,925,1000,1
330,394,1000,1
331,245,1001,1
332,597,1001,1
333,774,1000,1
334,588,1001,1
335,766,1001,1
336,116,1001,1
337,148,1000,1
338,930,1000,1
339,482,1000,1
340,53,1000,1
341,228,1000,1
342,18,1000,1
343,864,1000,1
344,399,1001,1
345,507,1000,1
346,413,1000,1
347,41,1000,1
348,164,1001,1
349,526,1000,1
350,528,1000,1
351,528,1001,1
352,363,1000,1
353,77,1001,1
354,893,1000,1
355,811,1001,1
356,688,1001,1
357,515,1001,1
358,918,1000,1
359,459,1000,1
360,208,1001,1
361,535,1000,1
362,724,1000,1
363,927,1001,1
364,296,1000,1
365,658,1001,1
366,913,1000,1
367,156,1001,1
368,735,1000,1
369,530,1000,1
370,50,1001,1
371,213,1001,1
372,217,1001,1
373,524,1000,1
374,894,1000,1
375,394,1001,1
376,860,1000,1
377,289,1001,1
378,489,1000,1
379,906,1001,1
380,531,1001,1
381,986,1000,1
382,887,1001,1
383,24,1001,1
384,180,1001,1
385,276,1001,1
386,502,1000,1
387,799,1001,1
388,476,1000,1
389,22,1001,1
390,466,1000,1
391,32,1000,1
392,94,1000,1
393,48,1000,1
394,909,1001,1
395,969,1000,1
396,208,1000,1
397,44,1001,1
398,755,1001,1
399,373,1000,1
400,68,1000,1
401,845,1001,1
402,263,1001,1
403,181,1001,1
404,416,1001,1
405,316,1000,1
406,741,1001,1
407,955,1000,1
408,419,1000,1
409,812,1000,1
410,142,1000,1
411,46,1000,1
412,40,1001,1
413,713,1001,1
414,602,1001,1
415,446,1001,1
416,124,1001,1
417,738,1000,1
418,376,1000,1
419,527,1001,1
420,743,1000,1
421,92,1001,1
422,114,1000,1
423,477,1001,1
424,794,1001,1
425,222,1000,1
426,900,1001,1
427,921,1001,1
428,805,1001,1
429,585,1000,1
430,513,1001,1
431,99,1001,1
432,280,1000,1
433,957,1001,1
434,372,1001,1
435,456,1001,1
436,27,1001,1
437,31,1000,1
438,694,1000,1
439,166,1000,1
440,558,1001,1
441,212,1000,1
442,760,1001,1
443,392,1000,1
444,861,1001,1
445,232,1001,1
446,621,1001,1
447,126,1001,1
448,119,1001,1
449,266,1000,1
450,698,1000,1
451,964,1001,1
452,437,1001,1
453,444,1000,1
454,811,1000,1
455,757,1001,1
456,195,1000,1
457,928,1001,1
458,815,1000,1
459,941,1000,1
460,599,1001,1
461,3,1001,1
462,733,1001,1
463,310,1001,1
464,377,1000,1
465,981,1000,1
466,427,1000,1
467,297,1000,1
468,900,1001,1
469,332,1001,1
470,131,1001,1
471,874,1001,1
472,47,1001,1
473,188,1001,1
474,876,1001,1
475,676,1000,1
476,960,1001,1
477,805,1001,1
478,693,1001,1
479,139,1000,1
480,50,1001,1
481,966,1000,1
482,789,1001,1
483,226,1000,1
484,289,1001,1
485,677,1001,1
486,802,1001,1
487,484,1001,1
488,676,1001,1
489,13,1000,1
490,14,1000,1
491,315,1001,1
492,14,1000,1
493,559,1000,1
494,36,1001,1
495,586,1001,1
496,111,1001,1
497,488,1001,1
498,279,1000,1
499,52,1001,1
500,383,1000,1
501,408,1001,1
502,702,1000,1
503,524,1001,1
504,991,1000,1
505,124,1000,1
506,380,1001,1
507,999,1000,1
508,74,1001,1
509,299,1000,1
510,298,1001,1
511,142,1000,1
512,555,1000,1
513,634,1000,1
514,775,1000,1
515,678,1000,1
516,253,1001,1
517,737,1000,1
518,518,1001,1
519,991,1001,1
520,320,1000,1
521,153,1001,1
522,549,1000,1
523,211,1001,1
524,324,1001,1
525,818,1001,1
526,808,1000,1
527,442,1001,1
528,650,1000,1
529,576,1001,1
530,121,1001,1
531,970,1000,1
532,143,1000,1
533,347,1000,1
534,827,1001,1
535,796,1001,1
536,556,1000,1
537,384,1001,1
538,120,1001,1
539,525,1000,1
540,190,1001,1
541,557,1000,1
542,512,1000,1
543,898,1001,1
544,597,1000,1
545,501,1001,1
546,643,1000,1
547,328,1000,1
548,931,1001,1
549,860,1000,1
550,722,1001,1
551,567,1000,1
552,899,1001,1
553,366,1000,1
554,927,1000,1
555,647,1001,1
556,330,1001,1
557,353,1000,1
558,384,1001,1
559,832,1001,1
560,898,1001,1
561,235,1000,1
562,696,1001,1
563,122,1001,1
564,809,1000,1
565,886,1001,1
566,660,1000,1
567,570,1001,1
568,643,1001,1
569,333,1000,1
570,208,1001,1
571,852,1001,1
572,272,1001,1
573,852,1000,1
574,467,1001,1
575,988,1000,1
576,879,1001,1
577,272,1000,1
578,459,1000,1
579,453,1001,1
580,637,1001,1
581,768,1001,1
582,466,1000,1
583,137,1000,1
584,679,1001,1
585,229,1000,1
586,217,1000,1
587,417,1000,1
588,519,1001,1
589,901,1000,1
590,22,1001,1
591,627,1000,1
592,560,1001,1
593,251,1000,1
594,864,1000,1
595,900,1001,1
596,699,1001,1
597,749,1001,1
598,550,1000,1
599,793,1001,1
600,776,1000,1
601,74,1001,1
602,344,1000,1
603,439,1000,1
604,160,1000,1
605,544,1000,1
606,356,1000,1
607,83,1000,1
608,311,1000,1
609,456,1000,1
610,500,1000,1
611,351,1001,1
612,473,1000,1
613,115,1000,1
614,389,1000,1
615,139,1001,1
616,707,1001,1
617,108,1000,1
618,419,1001,1
619,130,1001,1
620,124,1001,1
621,124,1001,1
622,652,1000,1
623,368,1001,1
624,640,1000,1
625,268,1000,1
626,292,1001,1
627,263,1001,1
628,579,1000,1
629,909,1000,1
630,623,1000,1
631,916,1001,1
632,763,1000,1
633,98,1001,1
634,968,1000,1
635,492,1000,1
636,399,1000,1
637,792,1000,1
638,486,1000,1
639,900,1001,1
640,7,1001,1
641,566,1001,1
642,644,1000,1
643,424,1001,1
644,686,1001,1
645,174,1001,1
646,317,1001,1
647,590,1001,1
648,837,1000,1
649,653,1000,1
650,933,1001,1
651,669,1001,1
652,348,1000,1
653,976,1000,1
654,936,1000,1
655,263,1001,1
656,494,1001,1
657,77,1001,1
658,729,1000,1
659,752,1000,1
660,410,1001,1
661,95,1000,1
662,977,1000,1
663,720,1001,1
664,237,1000,1
665,27,1001,1
666,887,1000,1
667,347,1001,1
668,779,1000,1
669,133,1000,1
670,670,1000,1
671,840,1001,1
672,698,1001,1
673,923,1001,1
674,933,1001,1
675,551,1001,1
676,233,1000,1
677,8,1000,1
678,107,1000,1
679,423,1000,1
680,964,1000,1
681,414,1001,1
682,725,1001,1
683,397,1000,1
684,865,1000,1
685,773,1000,1
686,998,1001,1
687,603,1000,1
688,247,1000,1
689,408,1001,1
690,329,1000,1
691,407,1000,1
692,424,1001,1
693,520,1000,1
694,871,1001,1
695,132,1000,1
696,846,1000,1
697,312,1000,1
698,948,1001,1
699,473,1001,1
700,18,1000,1
701,548,1001,1
702,692,1001,1
703,869,1001,1
704,937,1001,1
705,923,1000,1
706,65,1000,1
707,731,1000,1
708,729,1001,1
709,976,1001,1
710,143,1001,1
711,784,1000,1
712,108,1000,1
713,847,1001,1
714,747,1001,1
715,252,1001,1
716,863,1001,1
717,137,1001,1
718,429,1000,1
719,195,1001,1
720,11,1001,1
721,293,1000,1
722,621,1000,1
723,549,1001,1
724,337,1001,1
725,159,1000,1
726,820,1000,1
727,907,1000,1
728,865,1000,1
729,794,1001,1
730,323,1001,1
731,901,1000,1
732,852,1001,1
733,479,1001,1
734,3,1001,1
735,181,1000,1
736,605,1001,1
737,483,1001,1
738,676,1001,1
739,510,1001,1
740,532,1000,1
741,612,1000,1
742,666,1000,1
743,975,1001,1
744,963,1001,1
745,271,1001,1
746,241,1000,1
747,838,1000,1
748,602,1000,1
749,521,1001,1
750,238,1001,1
751,104,1001,1
752,848,1000,1
753,402,1001,1
754,273,1001,1
755,569,1001,1
756,652,1000,1
757,765,1001,1
758,688,1000,1
759,820,1001,1
760,77,1000,1
761,341,1001,1
762,111,1000,1
763,903,1001,1
764,21,1001,1
765,542,1001,1
766,309,1000,1
767,792,1001,1
768,524,1000,1
769,236,1001,1
770,636,1001,1
771,654,1001,1
772,122,1000,1
773,720,1000,1
774,784,1001,1
775,959,1001,1
776,860,1000,1
777,227,1000,1
778,182,1001,1
779,41,1000,1
780,640,1001,1
781,818,1000,1
782,645,1001,1
783,901,1000,1
784,134,1000,1
785,467,1000,1
786,644,1000,1
787,467,1000,1
788,19,1000,1
789,992,1000,1
790,347,1001,1
791,365,1001,1
792,635,1001,1
793,429,1000,1
794,319,1001,1
795,554,1000,1
796,117,1000,1
797,682,1001,1
798,636,1000,1
799,149,1000,1
800,831,1001,1
801,979,1001,1
802,969,1000,1
803,407,1000,1
804,684,1000,1
805,447,1000,1
806,35,1001,1
807,145,1000,1
808,598,1000,1
809,976,1001,1
810,771,1001,1
811,956,1001,1
812,954,1001,1
813,848,1000,1
814,380,1000,1
815,921,1000,1
816,342,1001,1
817,348,1000,1
818,709,1001,1
819,855,1000,1
820,728,1001,1
821,863,1001,1
822,265,1000,1
823,331,1000,1
824,593,1000,1
825,588,1001,1
826,852,1000,1
827,279,1000,1
828,263,1000,1
829,546,1000,1
830,857,1000,1
831,190,1000,1
832,758,1001,1
833,142,1001,1
834,383,1001,1
835,374,1001,1
836,327,1000,1
837,136,1000,1
838,584,1001,1
839,148,1000,1
840,199,1001,1
841,996,1000,1
842,282,1000,1
843,931,1001,1
844,417,1000,1
845,499,1001,1
846,151,1001,1
847,73,1001,1
848,659,1001,1
849,830,1000,1
850,541,1000,1
851,535,1000,1
852,782,1001,1
853,505,1001,1
854,173,1001,1
855,335,1000,1
856,773,1001,1
857,442,1001,1
858,283,1000,1
859,763,1000,1
860,655,1001,1
861,316,1000,1
862,688,1000,1
863,890,1001,1
864,324,1001,1
865,837,1000,1
866,671,1001,1
867,351,1001,1
868,429,1001,1
869,827,1000,1
870,347,1000,1
871,185,1001,1
872,116,1001,1
873,578,1001,1
874,667,1001,1
875,734,1000,1
876,581,1000,1
877,329,1000,1
878,389,1000,1
879,517,1001,1
880,592,1001,1
881,254,1000,1
882,272,1000,1
883,456,1001,1
884,807,1001,1
885,81,1000,1
886,174,1000,1
887,76,1000,1
888,805,1000,1
889,853,1001,1
890,992,1000,1
891,386,1000,1
892,992,1000,1
893,412,1000,1
894,280,1000,1
895,694,1001,1
896,740,1001,1
897,228,1001,1
898,213,1001,1
899,263,1001,1
900,979,1000,1
901,530,1000,1
902,112,1000,1
903,231,1001,1
904,401,1000,1
905,478,1001,1
906,364,1000,1
907,698,1001,1
908,264,1001,1
909,552,1001,1
910,368,1001,1
911,508,1001,1
912,859,1000,1
913,865,1000,1
914,441,1001,1
915,275,1001,1
916,689,1001,1
917,285,1001,1
918,110,1000,1
919,401,1001,1
920,29,1001,1
921,60,1001,1
922,75,1000,1
923,284,1000,1
924,967,1001,1
925,443,1001,1
926,149,1000,1
927,452,1001,1
928,254,1000,1
929,382,1001,1
930,477,1001,1
931,858,1001,1
932,616,1001,1
933,123,1001,1
934,544,1001,1
935,648,1001,1
936,423,1000,1
937,160,1001,1
938,629,1001,1
939,188,1001,1
940,255,1000,1
941,143,1001,1
942,504,1000,1
943,510,1000,1
944,880,1001,1
945,24,1000,1
946,735,1000,1
947,257,1001,1
948,45,1000,1
949,920,1001,1
950,782,1001,1
951,273,1001,1
952,820,1000,1
953,625,1001,1
954,819,1001,1
955,295,1001,1
956,827,1001,1
957,75,1000,1
958,397,1001,1
959,900,1001,1
960,347,1001,1
961,783,1000,1
962,792,1001,1
963,921,1000,1
964,734,1000,1
965,27,1000,1
966,538,1001,1
967,51,1000,1
968,308,1001,1
969,122,1001,1
970,973,1001,1
971,396,1001,1
972,934,1001,1
973,206,1001,1
974,349,1001,1
975,489,1000,1
976,857,1001,1
977,306,1001,1
978,692,1001,1
979,965,1000,1
980,15,1001,1
981,339,1001,1
982,889,1000,1
983,70,1001,1
984,129,1001,1
985,788,1000,1
986,438,1001,1
987,167,1001,1
988,868,1000,1
989,5,1000,1
990,377,1001,1
991,540,1000,1
992,627,1000,1
993,510,1001,1
994,540,1000,1
995,423,1000,1
996,994,1000,1
997,434,1001,1
998,289,1000,1
999,833,1000,1
1000,243,1001,1
